SimulationType                MonteCarlo
NumberOfCycles                25000
NumberOfInitializationCycles  5000
PrintEvery                    100
RestartFile                   no

ContinueAfterCrash            no
WriteBinaryRestartFileEvery   5000

Forcefield                    local
ChargeMethod                  None
CutOff                        17.0

Box 0
BoxLengths 35 35 35
ExternalTemperature 77.0
ExternalPressure  300e5
ComputeMolecularPressure yes

VolumeChangeProbability       0.25

Component 0 MoleculeName             H2UA
            MoleculeDefinition       TraPPE
            TranslationProbability   0.5
            RegrowProbability        0.5
            CreateNumberOfMolecules  768
