SimulationType        MonteCarlo
NumberOfCycles        10000
PrintEvery            100
PrintPropertiesEvery  100

Forcefield Dubbeldam2007FlexibleIRMOF-16
CutOff 12.0

Framework 0
FrameworkName IRMOF-1
UnitCells 1 1 1
SurfaceAreaProbeDistance Sigma

Component 0 MoleculeName             N2
            StartingBead             0
            MoleculeDefinition       TraPPE
            SurfaceAreaProbability   1.0
            CreateNumberOfMolecules  0


