SimulationType                   Numerical
#SimulationType                   Minimization
SimulationType                   MC
NumberOfCycles                   500
NumberOfInitializationCycles     100
NumberOfEquilibrationCycles      0
PrintEvery                       50
RestartFile                      no

RandomSeed 1361016699

RMSGradientTolerance 1e-6
MaxGradientTolerance 1e-6
MaximumStepLength 0.1

Ensemble NVT

CutOff                           12.0
ChargeChargeCutOff               10.0
ChargeMethod                     None
Forcefield                       Local
EwaldPrecision                   1e-4
TimeStep                         0.00005

#OmitEwaldFourier yes

Framework 0
Frameworkname FAU_SI
RemoveAtomNumberCodeFromLabel yes
UnitCells 1 1 1
#ReplicaUnitCells 3 3 3
RestrictFrameworkAtomsToBox yes
ExternalPressure 1.0e7
ExternalTemperature 300.0
PutMoleculeOnBarrier             no
BarrierPosition                  0.5 0.5 0.0
Movies no
WriteMoviesEvery 1
FlexibleFramework no

Component 0 MoleculeName                   hexane
            MoleculeDefinition             local
            ExtraFrameworkMolecule         no
            TranslationProbability         1.0
              TranslationDirection         XYZ
            RotationProbability            1.0
            ReinsertionProbability         1.0
            SwapProbability                0.0
            CFSwapLambdaProbability        2.0
            CreateNumberOfMolecules        0

Component 1 MoleculeName                   hexane
            MoleculeDefinition             local
            ExtraFrameworkMolecule         no
            TranslationProbability         1.0
              TranslationDirection         XYZ
            RotationProbability            1.0
            ReinsertionProbability         1.0
            SwapProbability                0.0
            CFSwapLambdaProbability        2.0
            CreateNumberOfMolecules        0
