SimulationType                   MonteCarlo
NumberOfCycles                   50000000000
NumberOfInitializationCycles     0
PrintEvery                       10000

ContinueAfterCrash               no
WriteBinaryRestartFileEvery      100000

Forcefield                       GarciaPerez2006

Framework                        0
FrameworkName                    DDR
RemoveAtomNumberCodeFromLabel    yes
ShiftUnitCells                   0.0 0.0 0.0
UnitCells                        2 2 1
ExternalTemperature              300.0

WriteFreeEnergyProfileEvery      10000

component 0 MoleculeName                     methane
            IdealGasRosenbluthWeight         1.0
            StartingBead                     0
            MoleculeDefinition               TraPPE
            BlockPockets                     yes
            BlockPocketsFileName             DDR
            FreeEnergyMappingType            AB_DIAGONAL
            ComputeFreeEnergyProfile         yes
            RestrictMovesToBox               yes
            BoxAxisABC_Min                   0 0 0.0
            BoxAxisABC_Max                   1 1 0.16666666666666666666
            BoxAxisABC_Min2                  0 0 0.83333333333333333333
            BoxAxisABC_Max2                  1 1 1.0
            CreateNumberOfMolecules          0
