SimulationType                MonteCarlo
NumberOfCycles                50000
NumberOfInitializationCycles  0
NumberOfEquilibrationCycles   20000
PrintEvery                    100
RestartFile                   no

OptimizeAcceptenceEvery       2000

Forcefield                    local
ChargeMethod                  Ewald
CutOffVDW                     14.0
CutOffCoulomb                 14.0
CutOffVDWSwitch               12.0

RandomSeed 1362840995

Box 0
BoxLengths 35 35 35
BoxAngles 90 90 90
ExternalTemperature 333.2

Box 1
BoxLengths 35 35 35
BoxAngles 90 90 90
ExternalTemperature 333.2

GibbsVolumeChangeProbability 1.0

Component 0 MoleculeName              SO2
            StartingBead              1
            MoleculeDefinition        local
            IdealGasRosenbluthWeight  1
            FugacityCoefficient       1.0
            TranslationProbability    1.0
            RotationProbability       1.0
            ReinsertionProbability    1.0
            CFGibbsProbability        2.0
            CreateNumberOfMolecules   200 200

