SimulationType                   MC
NumberOfCycles                   20
NumberOfInitializationCycles     5
NumberOfEquilibrationCycles      0
PrintEvery                       10
RestartFile                      no

RandomSeed 1361016699

RMSGradientTolerance 1e-6
MaxGradientTolerance 1e-6
MaximumStepLength 0.1

Ensemble NVT

CutOff                           14.0
ChargeChargeCutOff               4.0
ChargeMethod                     Ewald
Forcefield                       Local
EwaldPrecision                   1e-8
TimeStep                         0.00005

Remove12NeighboursFromChargeChargeInteraction yes
Remove13NeighboursFromChargeChargeInteraction yes
Remove14NeighboursFromChargeChargeInteraction no

Remove11NeighboursFromChargeBondDipoleInteraction yes
Remove12NeighboursFromChargeBondDipoleInteraction yes
Remove13NeighboursFromChargeBondDipoleInteraction yes
Remove14NeighboursFromChargeBondDipoleInteraction no

Remove12NeighboursFromBondDipoleBondDipoleInteraction yes
Remove13NeighboursFromBondDipoleBondDipoleInteraction no
Remove14NeighboursFromBondDipoleBondDipoleInteraction no

Framework 0
Frameworkname CHA_SI
RemoveAtomNumberCodeFromLabel yes
UnitCells 3 3 3
#ReplicaUnitCells 3 3 3
RestrictFrameworkAtomsToBox yes
ExternalPressure 1.0e7
ExternalTemperature 800.0
PutMoleculeOnBarrier             no
BarrierPosition                  0.5 0.5 0.0
Movies yes
WriteMoviesEvery 1

FrameworkChangeMoveProbability 1.0

FlexibleFramework yes
FrameworkDefinitions NicholasModified

Component 0 MoleculeName                   methane
            MoleculeDefinition             TraPPE-EH
            ExtraFrameworkMolecule         no
            TranslationProbability         1.0
              TranslationDirection         XYZ
            RotationProbability            1.0
            RegrowInPlaceProbability       1.0
            CreateNumberOfMolecules        0

Component 1 MoleculeName                   methane
            MoleculeDefinition             TraPPE-EH
            ExtraFrameworkMolecule         yes
            TranslationProbability         1.0
              TranslationDirection         XYZ
            RotationProbability            1.0
            RegrowInPlaceProbability       1.0
            CreateNumberOfMolecules        0



