SimulationType                   Minimization
MinimizationMethod               Baker
MaximumNumberOfMinimizationSteps 10000000000000
NumberOfCycles                   1
NumberOfInitializationCycles     0
NumberOfEquilibrationCycles      0
PrintEvery                       1
RestartFile                      no

Ensemble NPTPR
NPTPRCellType Anisotropic

ChargeMethod                     Ewald
CutOff                           10.0
CutOffChargeCharge               10.0
TimeStep                         0.0005
Forcefield                       Local
EwaldPrecision                   1e-8

ImproperTorsionScanType unique
RemoveBondNeighboursFromLongRangeInteraction yes
RemoveBendNeighboursFromLongRangeInteraction yes
RemoveTorsionNeighboursFromLongRangeInteraction yes

Framework 0
FrameworkName DMOF
UnitCells 1 1 1
HeliumVoidFraction 1.0
ExternalTemperature 298.0
ExternalPressure 0
Movies yes
WriteMoviesEvery 1

FrameworkDefinitions Local
FlexibleFramework yes
