SimulationType                   MC
NumberOfCycles                   0
NumberOfInitializationCycles     0
PrintEvery                       100
RestartFile                      no

Forcefield                       GenericMOFs
BoundaryCondition                None
ChargeMethod                     Coulomb
ChargeFromChargeEquilibration    yes
#ChargeEquilibrationMethod        DING_YAZAYDIN_DUBBELDAM
ChargeEquilibrationMethod        WILMER_SNURR
SymmetrizeFrameworkCharges       no
CutOff                           12.0

Framework           0
FrameworkName       IRMOF-3
UnitCells           1 1 1
ExternalTemperature 298.0
ExternalPressure    0.0
InputFileType       cif
ReadCIFAsCartesian  yes
