SimulationType                    MonteCarlo
NumberOfCycles                    250000
NumberOfInitializationCycles      50000
PrintEvery                        10000
RestartFile                       no

ChargeMethod                      Ewald
CutOff                            12.0
Forcefield                        GarciaPerez2006
EwaldPrecision                    1e-6

RemoveAtomNumberCodeFromLabel yes
ModifyFrameworkAtomConnectedTo O Oa Al

Framework 0
FrameworkName LTA4A
UnitCells 1 1 1
CutOffIons 2.5
IonsName LTA4A
ComputeCationAndAdsorptionSites yes
ExternalTemperature 30.0

Component 0 MoleculeName                   sodium
            MoleculeDefinition             TraPPE
            TranslationProbability         1.0
            RandomTranslationProbability   1.0
            ExtraFrameworkMolecule         yes
            CreateNumberOfMolecules        96
