SimulationType                MonteCarlo
NumberOfCycles                0
NumberOfInitializationCycles  0
PrintEvery                    100
RestartFile                   yes

Forcefield                         local
EwaldParameters                    0.8 8 8 8
ChargeMethod                       Ewald
ReciprocalCutOff                   11.0
CutOffChargeCharge                 5.0
ComputePolarization                yes
PolarizationMatrix                 anisotropic
BackPolarization                   yes
NumberOfBackPolarizationSteps      3
OmitAdsorbateAdsorbatePolarization no

Box 0
BoxLengths 10 10 10
ExternalTemperature 300.0

Component 0 MoleculeName             atom1
            MoleculeDefinition       TraPPE
            TranslationProbability   1.0
            CreateNumberOfMolecules  0

Component 1 MoleculeName             atom2
            MoleculeDefinition       TraPPE
            TranslationProbability   1.0
            CreateNumberOfMolecules  0

Component 2 MoleculeName             atom3
            MoleculeDefinition       TraPPE
            TranslationProbability   1.0
            CreateNumberOfMolecules  0

Component 3 MoleculeName             atom4
            MoleculeDefinition       TraPPE
            TranslationProbability   1.0
            CreateNumberOfMolecules  0
