SimulationType                   Minimization
MinimizationMethod               Snyman
NumberOfCycles                   1
NumberOfInitializationCycles     0
NumberOfEquilibrationCycles      0
PrintEvery                       5000
RestartFile                      yes

Dimension 2
ReducedUnits yes

RMSGradientTolerance 1e-7
MaxGradientTolerance 1e-7

MaximumStepLength 0.1

RemoveTranslationFromHessian yes
RemoveRotationFromHessian yes

Ensemble NPTPR
NPTPRCellType RegularUpperTriangle

ComputeElasticConstants yes

CutOff                           1.35
ChargeMethod                     None
Forcefield                       Local

Box 0
BoxLengths 20 20
BoxAngles 90
UnitCells 1 1
ExternalPressure 1.0
ExternalStress 1.0 0.01 1.05
ExternalTemperature 1.0
Movies no
WriteMoviesEvery 10

Component 0 MoleculeName             LJ1
            MoleculeDefinition       TraPPE
            TranslationProbability   1.0
            RotationProbability      0.0
            ReinsertionProbability   0.0
            CreateNumberOfMolecules  0

Component 1 MoleculeName             LJ2
            MoleculeDefinition       TraPPE
            TranslationProbability   1.0
            RotationProbability      0.0
            ReinsertionProbability   0.0
            CreateNumberOfMolecules  0
