SimulationType                   MC
NumberOfCycles                   0
NumberOfInitializationCycles     0
PrintEvery                       100
RestartFile                      no

Forcefield                       GenericMOFs
ChargeFromChargeEquilibration    yes
ChargeEquilibrationMethod        DING_YAZAYDIN_DUBBELDAM
ChargeMethod                     Ewald
CutOff                           12.0

Framework           0
FrameworkName       IRMOF-3
UnitCells           1 1 1
ExternalTemperature 298.0
ExternalPressure    0.0
InputFileType       cif
