SimulationType                MonteCarlo
NumberOfCycles                0
NumberOfInitializationCycles  0
PrintEvery                    100
RestartFile                   yes

Forcefield                         local
EwaldPrecision                     1e-8
ChargeMethod                       Ewald
ReciprocalCutOff                   11.0
CutOffChargeCharge                 5.0
ComputePolarization                no
OmitAdsorbateAdsorbatePolarization no

Box 0
BoxLengths 10 10 10
ExternalTemperature 300.0

Component 0 MoleculeName             ion1
            MoleculeDefinition       TraPPE
            TranslationProbability   1.0
            CreateNumberOfMolecules  0

Component 1 MoleculeName             ion2
            MoleculeDefinition       TraPPE
            TranslationProbability   1.0
            CreateNumberOfMolecules  0
