SimulationType                   MD
NumberOfCycles                   500000
NumberOfInitializationCycles     10000
NumberOfEquilibrationCycles      50000
PrintEvery                       5000
RestartFile                      no

ContinueAfterCrash               no
WriteBinaryRestartFileEvery      25000

Ensemble      NPTPR
NPTPRCellType RegularUpperTriangle

Charge                           Ewald
CutOff                           12.0
TimeStep                         0.0005
Forcefield                       McKendrick2012FlexibleMIL-53
EwaldPrecision                   1e-6

Framework 0
FrameworkName MIL-53(Cr)ht
UnitCells 2 4 4
HeliumVoidFraction 1.0
ExternalTemperature 300.0
ExternalPressure 1.0e5

FrameworkDefinitions McKendrick2012FlexibleMIL-53
FlexibleFramework yes

Component 0 MoleculeName                   CO2
            MoleculeDefinition             TraPPE
            CreateNumberOfMolecules        64
