SimulationType                   MonteCarlo
NumberOfCycles                   1000
NumberOfInitializationCycles     0
PrintEvery                       100
RestartFile                      yes

ContinueAfterCrash               no
WriteBinaryRestartFileEvery      10

Forcefield                       GarciaPerez2006
CutOff                           12.0
ModifyFrameworkAtomConnectedTo   O Oa Al
ForbiddenFrameworkConnectivity   Al O Al
ForbiddenFrameworkConnectivity   Al Oa Al

NumberOfGrids 4
GridTypes CH3_sp3 CH2_sp3 C_sp3 Ca
SpacingVDWGrid 0.1
SpacingCoulombGrid 0.1

Framework 0
FrameworkName MFI_Al3
RemoveAtomNumberCodeFromLabel yes
UnitCells 2 2 2
HeliumVoidFraction 0.29
ExternalTemperature 298.0
ExternalPressure    1.0

Framework 1
FrameworkName MFI_Al3
RemoveAtomNumberCodeFromLabel yes
UnitCells 2 2 2
HeliumVoidFraction 0.29
ExternalTemperature 298.0
ExternalPressure    1.0

Framework 2
FrameworkName MFI_Al3
RemoveAtomNumberCodeFromLabel yes
UnitCells 2 2 2
HeliumVoidFraction 0.29
ExternalTemperature 298.0
ExternalPressure    1.0

Framework 3
FrameworkName MFI_Al3
RemoveAtomNumberCodeFromLabel yes
UnitCells 2 2 2
HeliumVoidFraction 0.29
ExternalTemperature 298.0
ExternalPressure    1.0

Framework 4
FrameworkName MFI_Al3
RemoveAtomNumberCodeFromLabel yes
UnitCells 2 2 2
HeliumVoidFraction 0.29
ExternalTemperature 298.0
ExternalPressure    1.0

Framework 5
FrameworkName MFI_Al3
RemoveAtomNumberCodeFromLabel yes
UnitCells 2 2 2
HeliumVoidFraction 0.29
ExternalTemperature 298.0
ExternalPressure    1.0

Framework 6
FrameworkName MFI_Al3
RemoveAtomNumberCodeFromLabel yes
UnitCells 2 2 2
HeliumVoidFraction 0.29
ExternalTemperature 298.0
ExternalPressure   1.0

Framework 7
FrameworkName MFI_Al3
RemoveAtomNumberCodeFromLabel yes
UnitCells 2 2 2
HeliumVoidFraction 0.29
ExternalTemperature 298.0
ExternalPressure   1.0

Framework 8
FrameworkName MFI_Al3
RemoveAtomNumberCodeFromLabel yes
UnitCells 2 2 2
HeliumVoidFraction 0.29
ExternalTemperature 298.0
ExternalPressure   1.0

UseTabularGrid no

ParallelMolFractionProbability 0.0
  ParallelMolFractionComponentA 1
  ParallelMolFractionComponentB 2
ChiralInversionProbability 1.0

component 0 MoleculeName                     calcium
            MoleculeDefinition               TraPPE
            TranslationProbability           1.0
            ExtraFrameworkMolecule           yes
            CreateNumberOfMolecules          0 0 0 0 0 0 0 0 0


component 1 MoleculeName                     44methylethyloctane_L
            StartingBead                     3
            MoleculeDefinition               TraPPE
            MolFraction                      0.1 0.2 0.3 0.4 0.5 0.6 0.7 0.8 0.9
            FugacityCoefficient              1.0 1.0 1.0 1.0 1.0 1.0 1.0 1.0 1.0
            IdealGasRosenbluthWeight         0.000016 0.000016 0.000016 0.000016 0.000016 0.000016 0.000016 0.000016 0.000016
            TranslationProbability           0.5
            RotationProbability              0.5
            RegrowProbability                0.5
            SwapProbability                  1.0
            CBMCProbability                  0.5
            IdentityChangeProbability        0.5
             NumberOfIdentityChanges         2
             IdentityChangesList             1 2
            CreateNumberOfMolecules          0 0 0 0 0 0 0 0 0

component 2 MoleculeName                     44methylethyloctane_R
            StartingBead                     3
            MoleculeDefinition               TraPPE
            MolFraction                      0.9 0.8 0.7 0.6 0.5 0.4 0.3 0.2 0.1
            FugacityCoefficient              1.0 1.0 1.0 1.0 1.0 1.0 1.0 1.0 1.0
            IdealGasRosenbluthWeight         0.000016 0.000016 0.000016 0.000016 0.000016 0.000016 0.000016 0.000016 0.000016
            TranslationProbability           0.5
            RotationProbability              0.5
            RegrowProbability                0.5
            SwapProbability                  1.0
            CBMCProbability                  0.5
            IdentityChangeProbability        0.5
             NumberOfIdentityChanges         2
             IdentityChangesList             1 2
            CreateNumberOfMolecules          0 0 0 0 0 0 0 0 0

